
(set-logic HORN)
(declare-datatypes ((Bool_119 0)) (((false_119) (true_119))))
(declare-fun diseqBool_52 (Bool_119 Bool_119) Bool)
(declare-fun isfalse_52 (Bool_119) Bool)
(declare-fun istrue_52 (Bool_119) Bool)
(assert (isfalse_52 false_119))
(assert (istrue_52 true_119))
(assert (diseqBool_52 false_119 true_119))
(assert (diseqBool_52 true_119 false_119))
(declare-fun and_119 (Bool_119 Bool_119 Bool_119) Bool)
(declare-fun or_120 (Bool_119 Bool_119 Bool_119) Bool)
(declare-fun hence_119 (Bool_119 Bool_119 Bool_119) Bool)
(declare-fun not_119 (Bool_119 Bool_119) Bool)
(assert (and_119 false_119 false_119 false_119))
(assert (and_119 false_119 true_119 false_119))
(assert (and_119 false_119 false_119 true_119))
(assert (and_119 true_119 true_119 true_119))
(assert (or_120 false_119 false_119 false_119))
(assert (or_120 true_119 true_119 false_119))
(assert (or_120 true_119 false_119 true_119))
(assert (or_120 true_119 true_119 true_119))
(assert (hence_119 true_119 false_119 false_119))
(assert (hence_119 false_119 true_119 false_119))
(assert (hence_119 true_119 false_119 true_119))
(assert (hence_119 true_119 true_119 true_119))
(assert (not_119 true_119 false_119))
(assert (not_119 false_119 true_119))
(declare-datatypes ((A_22 0)) (((X_15440) (Y_621))))
(declare-fun diseqA_4 (A_22 A_22) Bool)
(declare-fun isX_4 (A_22) Bool)
(declare-fun isY_4 (A_22) Bool)
(assert (isX_4 X_15440))
(assert (isY_4 Y_621))
(assert (diseqA_4 X_15440 Y_621))
(assert (diseqA_4 Y_621 X_15440))
(declare-datatypes ((R_136 0)) (((Nil_94) (Eps_8) (Atom_4 (projAtom_8 A_22)) (Plus_23 (projPlus_16 R_136) (projPlus_17 R_136)) (Seq_8 (projSeq_16 R_136) (projSeq_17 R_136)) (Star_4 (projStar_8 R_136)))))
(declare-fun diseqR_4 (R_136 R_136) Bool)
(declare-fun projAtom_9 (A_22 R_136) Bool)
(declare-fun projPlus_18 (R_136 R_136) Bool)
(declare-fun projPlus_19 (R_136 R_136) Bool)
(declare-fun projSeq_18 (R_136 R_136) Bool)
(declare-fun projSeq_19 (R_136 R_136) Bool)
(declare-fun projStar_9 (R_136 R_136) Bool)
(declare-fun isNil_94 (R_136) Bool)
(declare-fun isEps_4 (R_136) Bool)
(declare-fun isAtom_4 (R_136) Bool)
(declare-fun isPlus_4 (R_136) Bool)
(declare-fun isSeq_4 (R_136) Bool)
(declare-fun isStar_4 (R_136) Bool)
(assert (forall ((x_17529 A_22))
	(projAtom_9 x_17529 (Atom_4 x_17529))))
(assert (forall ((x_17531 R_136) (x_17532 R_136))
	(projPlus_18 x_17531 (Plus_23 x_17531 x_17532))))
(assert (forall ((x_17531 R_136) (x_17532 R_136))
	(projPlus_19 x_17532 (Plus_23 x_17531 x_17532))))
(assert (forall ((x_17534 R_136) (x_17535 R_136))
	(projSeq_18 x_17534 (Seq_8 x_17534 x_17535))))
(assert (forall ((x_17534 R_136) (x_17535 R_136))
	(projSeq_19 x_17535 (Seq_8 x_17534 x_17535))))
(assert (forall ((x_17537 R_136))
	(projStar_9 x_17537 (Star_4 x_17537))))
(assert (isNil_94 Nil_94))
(assert (isEps_4 Eps_8))
(assert (forall ((x_17539 A_22))
	(isAtom_4 (Atom_4 x_17539))))
(assert (forall ((x_17540 R_136) (x_17541 R_136))
	(isPlus_4 (Plus_23 x_17540 x_17541))))
(assert (forall ((x_17542 R_136) (x_17543 R_136))
	(isSeq_4 (Seq_8 x_17542 x_17543))))
(assert (forall ((x_17544 R_136))
	(isStar_4 (Star_4 x_17544))))
(assert (diseqR_4 Nil_94 Eps_8))
(assert (forall ((x_17545 A_22))
	(diseqR_4 Nil_94 (Atom_4 x_17545))))
(assert (forall ((x_17546 R_136) (x_17547 R_136))
	(diseqR_4 Nil_94 (Plus_23 x_17546 x_17547))))
(assert (forall ((x_17548 R_136) (x_17549 R_136))
	(diseqR_4 Nil_94 (Seq_8 x_17548 x_17549))))
(assert (forall ((x_17550 R_136))
	(diseqR_4 Nil_94 (Star_4 x_17550))))
(assert (diseqR_4 Eps_8 Nil_94))
(assert (forall ((x_17551 A_22))
	(diseqR_4 (Atom_4 x_17551) Nil_94)))
(assert (forall ((x_17552 R_136) (x_17553 R_136))
	(diseqR_4 (Plus_23 x_17552 x_17553) Nil_94)))
(assert (forall ((x_17554 R_136) (x_17555 R_136))
	(diseqR_4 (Seq_8 x_17554 x_17555) Nil_94)))
(assert (forall ((x_17556 R_136))
	(diseqR_4 (Star_4 x_17556) Nil_94)))
(assert (forall ((x_17557 A_22))
	(diseqR_4 Eps_8 (Atom_4 x_17557))))
(assert (forall ((x_17558 R_136) (x_17559 R_136))
	(diseqR_4 Eps_8 (Plus_23 x_17558 x_17559))))
(assert (forall ((x_17560 R_136) (x_17561 R_136))
	(diseqR_4 Eps_8 (Seq_8 x_17560 x_17561))))
(assert (forall ((x_17562 R_136))
	(diseqR_4 Eps_8 (Star_4 x_17562))))
(assert (forall ((x_17563 A_22))
	(diseqR_4 (Atom_4 x_17563) Eps_8)))
(assert (forall ((x_17564 R_136) (x_17565 R_136))
	(diseqR_4 (Plus_23 x_17564 x_17565) Eps_8)))
(assert (forall ((x_17566 R_136) (x_17567 R_136))
	(diseqR_4 (Seq_8 x_17566 x_17567) Eps_8)))
(assert (forall ((x_17568 R_136))
	(diseqR_4 (Star_4 x_17568) Eps_8)))
(assert (forall ((x_17569 A_22) (x_17570 R_136) (x_17571 R_136))
	(diseqR_4 (Atom_4 x_17569) (Plus_23 x_17570 x_17571))))
(assert (forall ((x_17572 A_22) (x_17573 R_136) (x_17574 R_136))
	(diseqR_4 (Atom_4 x_17572) (Seq_8 x_17573 x_17574))))
(assert (forall ((x_17575 A_22) (x_17576 R_136))
	(diseqR_4 (Atom_4 x_17575) (Star_4 x_17576))))
(assert (forall ((x_17577 R_136) (x_17578 R_136) (x_17579 A_22))
	(diseqR_4 (Plus_23 x_17577 x_17578) (Atom_4 x_17579))))
(assert (forall ((x_17580 R_136) (x_17581 R_136) (x_17582 A_22))
	(diseqR_4 (Seq_8 x_17580 x_17581) (Atom_4 x_17582))))
(assert (forall ((x_17583 R_136) (x_17584 A_22))
	(diseqR_4 (Star_4 x_17583) (Atom_4 x_17584))))
(assert (forall ((x_17585 R_136) (x_17586 R_136) (x_17587 R_136) (x_17588 R_136))
	(diseqR_4 (Plus_23 x_17585 x_17586) (Seq_8 x_17587 x_17588))))
(assert (forall ((x_17589 R_136) (x_17590 R_136) (x_17591 R_136))
	(diseqR_4 (Plus_23 x_17589 x_17590) (Star_4 x_17591))))
(assert (forall ((x_17592 R_136) (x_17593 R_136) (x_17594 R_136) (x_17595 R_136))
	(diseqR_4 (Seq_8 x_17592 x_17593) (Plus_23 x_17594 x_17595))))
(assert (forall ((x_17596 R_136) (x_17597 R_136) (x_17598 R_136))
	(diseqR_4 (Star_4 x_17596) (Plus_23 x_17597 x_17598))))
(assert (forall ((x_17599 R_136) (x_17600 R_136) (x_17601 R_136))
	(diseqR_4 (Seq_8 x_17599 x_17600) (Star_4 x_17601))))
(assert (forall ((x_17602 R_136) (x_17603 R_136) (x_17604 R_136))
	(diseqR_4 (Star_4 x_17602) (Seq_8 x_17603 x_17604))))
(assert (forall ((x_17605 A_22) (x_17606 A_22))
	(=> (diseqA_4 x_17605 x_17606) (diseqR_4 (Atom_4 x_17605) (Atom_4 x_17606)))))
(assert (forall ((x_17607 R_136) (x_17608 R_136) (x_17609 R_136) (x_17610 R_136))
	(=> (diseqR_4 x_17607 x_17609) (diseqR_4 (Plus_23 x_17607 x_17608) (Plus_23 x_17609 x_17610)))))
(assert (forall ((x_17607 R_136) (x_17608 R_136) (x_17609 R_136) (x_17610 R_136))
	(=> (diseqR_4 x_17608 x_17610) (diseqR_4 (Plus_23 x_17607 x_17608) (Plus_23 x_17609 x_17610)))))
(assert (forall ((x_17611 R_136) (x_17612 R_136) (x_17613 R_136) (x_17614 R_136))
	(=> (diseqR_4 x_17611 x_17613) (diseqR_4 (Seq_8 x_17611 x_17612) (Seq_8 x_17613 x_17614)))))
(assert (forall ((x_17611 R_136) (x_17612 R_136) (x_17613 R_136) (x_17614 R_136))
	(=> (diseqR_4 x_17612 x_17614) (diseqR_4 (Seq_8 x_17611 x_17612) (Seq_8 x_17613 x_17614)))))
(assert (forall ((x_17615 R_136) (x_17616 R_136))
	(=> (diseqR_4 x_17615 x_17616) (diseqR_4 (Star_4 x_17615) (Star_4 x_17616)))))
(declare-datatypes ((list_88 0)) (((nil_95) (cons_88 (head_176 A_22) (tail_176 list_88)))))
(declare-fun diseqlist_88 (list_88 list_88) Bool)
(declare-fun head_177 (A_22 list_88) Bool)
(declare-fun tail_177 (list_88 list_88) Bool)
(declare-fun isnil_95 (list_88) Bool)
(declare-fun iscons_88 (list_88) Bool)
(assert (forall ((x_17618 A_22) (x_17619 list_88))
	(head_177 x_17618 (cons_88 x_17618 x_17619))))
(assert (forall ((x_17618 A_22) (x_17619 list_88))
	(tail_177 x_17619 (cons_88 x_17618 x_17619))))
(assert (isnil_95 nil_95))
(assert (forall ((x_17621 A_22) (x_17622 list_88))
	(iscons_88 (cons_88 x_17621 x_17622))))
(assert (forall ((x_17623 A_22) (x_17624 list_88))
	(diseqlist_88 nil_95 (cons_88 x_17623 x_17624))))
(assert (forall ((x_17625 A_22) (x_17626 list_88))
	(diseqlist_88 (cons_88 x_17625 x_17626) nil_95)))
(assert (forall ((x_17627 A_22) (x_17628 list_88) (x_17629 A_22) (x_17630 list_88))
	(=> (diseqA_4 x_17627 x_17629) (diseqlist_88 (cons_88 x_17627 x_17628) (cons_88 x_17629 x_17630)))))
(assert (forall ((x_17627 A_22) (x_17628 list_88) (x_17629 A_22) (x_17630 list_88))
	(=> (diseqlist_88 x_17628 x_17630) (diseqlist_88 (cons_88 x_17627 x_17628) (cons_88 x_17629 x_17630)))))
(declare-fun seq_9 (R_136 R_136 R_136) Bool)
(assert (forall ((y_622 R_136))
	(seq_9 Nil_94 Nil_94 y_622)))
(assert (forall ((x_15442 R_136) (x_15684 A_22))
	(seq_9 Nil_94 (Atom_4 x_15684) Nil_94)))
(assert (forall ((x_15442 R_136))
	(seq_9 Nil_94 Eps_8 Nil_94)))
(assert (forall ((x_15442 R_136) (x_15685 R_136) (x_15686 R_136))
	(seq_9 Nil_94 (Plus_23 x_15685 x_15686) Nil_94)))
(assert (forall ((x_15442 R_136) (x_15687 R_136) (x_15688 R_136))
	(seq_9 Nil_94 (Seq_8 x_15687 x_15688) Nil_94)))
(assert (forall ((x_15442 R_136) (x_15689 R_136))
	(seq_9 Nil_94 (Star_4 x_15689) Nil_94)))
(assert (forall ((x_15443 R_136) (x_15498 A_22) (x_15442 R_136))
	(seq_9 (Atom_4 x_15498) Eps_8 (Atom_4 x_15498))))
(assert (forall ((x_15443 R_136) (x_15442 R_136))
	(seq_9 Eps_8 Eps_8 Eps_8)))
(assert (forall ((x_15443 R_136) (x_15499 R_136) (x_15500 R_136) (x_15442 R_136))
	(seq_9 (Plus_23 x_15499 x_15500) Eps_8 (Plus_23 x_15499 x_15500))))
(assert (forall ((x_15443 R_136) (x_15501 R_136) (x_15502 R_136) (x_15442 R_136))
	(seq_9 (Seq_8 x_15501 x_15502) Eps_8 (Seq_8 x_15501 x_15502))))
(assert (forall ((x_15443 R_136) (x_15503 R_136) (x_15442 R_136))
	(seq_9 (Star_4 x_15503) Eps_8 (Star_4 x_15503))))
(assert (forall ((x_15444 R_136) (x_15462 A_22) (x_15443 R_136) (x_15442 R_136))
	(seq_9 (Atom_4 x_15462) (Atom_4 x_15462) Eps_8)))
(assert (forall ((x_15444 R_136) (x_15463 R_136) (x_15464 R_136) (x_15443 R_136) (x_15442 R_136))
	(seq_9 (Plus_23 x_15463 x_15464) (Plus_23 x_15463 x_15464) Eps_8)))
(assert (forall ((x_15444 R_136) (x_15465 R_136) (x_15466 R_136) (x_15443 R_136) (x_15442 R_136))
	(seq_9 (Seq_8 x_15465 x_15466) (Seq_8 x_15465 x_15466) Eps_8)))
(assert (forall ((x_15444 R_136) (x_15467 R_136) (x_15443 R_136) (x_15442 R_136))
	(seq_9 (Star_4 x_15467) (Star_4 x_15467) Eps_8)))
(assert (forall ((x_15445 R_136) (x_15456 A_22) (x_15444 R_136) (x_15468 A_22) (x_15443 R_136) (x_15442 R_136))
	(seq_9 (Seq_8 (Atom_4 x_15468) (Atom_4 x_15456)) (Atom_4 x_15468) (Atom_4 x_15456))))
(assert (forall ((x_15445 R_136) (x_15456 A_22) (x_15444 R_136) (x_15469 R_136) (x_15470 R_136) (x_15443 R_136) (x_15442 R_136))
	(seq_9 (Seq_8 (Plus_23 x_15469 x_15470) (Atom_4 x_15456)) (Plus_23 x_15469 x_15470) (Atom_4 x_15456))))
(assert (forall ((x_15445 R_136) (x_15456 A_22) (x_15444 R_136) (x_15471 R_136) (x_15472 R_136) (x_15443 R_136) (x_15442 R_136))
	(seq_9 (Seq_8 (Seq_8 x_15471 x_15472) (Atom_4 x_15456)) (Seq_8 x_15471 x_15472) (Atom_4 x_15456))))
(assert (forall ((x_15445 R_136) (x_15456 A_22) (x_15444 R_136) (x_15473 R_136) (x_15443 R_136) (x_15442 R_136))
	(seq_9 (Seq_8 (Star_4 x_15473) (Atom_4 x_15456)) (Star_4 x_15473) (Atom_4 x_15456))))
(assert (forall ((x_15445 R_136) (x_15457 R_136) (x_15458 R_136) (x_15444 R_136) (x_15480 A_22) (x_15443 R_136) (x_15442 R_136))
	(seq_9 (Seq_8 (Atom_4 x_15480) (Plus_23 x_15457 x_15458)) (Atom_4 x_15480) (Plus_23 x_15457 x_15458))))
(assert (forall ((x_15445 R_136) (x_15457 R_136) (x_15458 R_136) (x_15444 R_136) (x_15481 R_136) (x_15482 R_136) (x_15443 R_136) (x_15442 R_136))
	(seq_9 (Seq_8 (Plus_23 x_15481 x_15482) (Plus_23 x_15457 x_15458)) (Plus_23 x_15481 x_15482) (Plus_23 x_15457 x_15458))))
(assert (forall ((x_15445 R_136) (x_15457 R_136) (x_15458 R_136) (x_15444 R_136) (x_15483 R_136) (x_15484 R_136) (x_15443 R_136) (x_15442 R_136))
	(seq_9 (Seq_8 (Seq_8 x_15483 x_15484) (Plus_23 x_15457 x_15458)) (Seq_8 x_15483 x_15484) (Plus_23 x_15457 x_15458))))
(assert (forall ((x_15445 R_136) (x_15457 R_136) (x_15458 R_136) (x_15444 R_136) (x_15485 R_136) (x_15443 R_136) (x_15442 R_136))
	(seq_9 (Seq_8 (Star_4 x_15485) (Plus_23 x_15457 x_15458)) (Star_4 x_15485) (Plus_23 x_15457 x_15458))))
(assert (forall ((x_15445 R_136) (x_15459 R_136) (x_15460 R_136) (x_15444 R_136) (x_15486 A_22) (x_15443 R_136) (x_15442 R_136))
	(seq_9 (Seq_8 (Atom_4 x_15486) (Seq_8 x_15459 x_15460)) (Atom_4 x_15486) (Seq_8 x_15459 x_15460))))
(assert (forall ((x_15445 R_136) (x_15459 R_136) (x_15460 R_136) (x_15444 R_136) (x_15487 R_136) (x_15488 R_136) (x_15443 R_136) (x_15442 R_136))
	(seq_9 (Seq_8 (Plus_23 x_15487 x_15488) (Seq_8 x_15459 x_15460)) (Plus_23 x_15487 x_15488) (Seq_8 x_15459 x_15460))))
(assert (forall ((x_15445 R_136) (x_15459 R_136) (x_15460 R_136) (x_15444 R_136) (x_15489 R_136) (x_15490 R_136) (x_15443 R_136) (x_15442 R_136))
	(seq_9 (Seq_8 (Seq_8 x_15489 x_15490) (Seq_8 x_15459 x_15460)) (Seq_8 x_15489 x_15490) (Seq_8 x_15459 x_15460))))
(assert (forall ((x_15445 R_136) (x_15459 R_136) (x_15460 R_136) (x_15444 R_136) (x_15491 R_136) (x_15443 R_136) (x_15442 R_136))
	(seq_9 (Seq_8 (Star_4 x_15491) (Seq_8 x_15459 x_15460)) (Star_4 x_15491) (Seq_8 x_15459 x_15460))))
(assert (forall ((x_15445 R_136) (x_15461 R_136) (x_15444 R_136) (x_15492 A_22) (x_15443 R_136) (x_15442 R_136))
	(seq_9 (Seq_8 (Atom_4 x_15492) (Star_4 x_15461)) (Atom_4 x_15492) (Star_4 x_15461))))
(assert (forall ((x_15445 R_136) (x_15461 R_136) (x_15444 R_136) (x_15493 R_136) (x_15494 R_136) (x_15443 R_136) (x_15442 R_136))
	(seq_9 (Seq_8 (Plus_23 x_15493 x_15494) (Star_4 x_15461)) (Plus_23 x_15493 x_15494) (Star_4 x_15461))))
(assert (forall ((x_15445 R_136) (x_15461 R_136) (x_15444 R_136) (x_15495 R_136) (x_15496 R_136) (x_15443 R_136) (x_15442 R_136))
	(seq_9 (Seq_8 (Seq_8 x_15495 x_15496) (Star_4 x_15461)) (Seq_8 x_15495 x_15496) (Star_4 x_15461))))
(assert (forall ((x_15445 R_136) (x_15461 R_136) (x_15444 R_136) (x_15497 R_136) (x_15443 R_136) (x_15442 R_136))
	(seq_9 (Seq_8 (Star_4 x_15497) (Star_4 x_15461)) (Star_4 x_15497) (Star_4 x_15461))))
(declare-fun plus_24 (R_136 R_136 R_136) Bool)
(assert (forall ((x_17444 R_136))
	(plus_24 x_17444 Nil_94 x_17444)))
(assert (forall ((x_15447 R_136) (x_16626 A_22))
	(plus_24 (Atom_4 x_16626) (Atom_4 x_16626) Nil_94)))
(assert (forall ((x_15447 R_136))
	(plus_24 Eps_8 Eps_8 Nil_94)))
(assert (forall ((x_15447 R_136) (x_16627 R_136) (x_16628 R_136))
	(plus_24 (Plus_23 x_16627 x_16628) (Plus_23 x_16627 x_16628) Nil_94)))
(assert (forall ((x_15447 R_136) (x_16629 R_136) (x_16630 R_136))
	(plus_24 (Seq_8 x_16629 x_16630) (Seq_8 x_16629 x_16630) Nil_94)))
(assert (forall ((x_15447 R_136) (x_16631 R_136))
	(plus_24 (Star_4 x_16631) (Star_4 x_16631) Nil_94)))
(assert (forall ((x_15448 R_136) (x_16620 A_22) (x_15447 R_136) (x_16632 A_22))
	(plus_24 (Plus_23 (Atom_4 x_16632) (Atom_4 x_16620)) (Atom_4 x_16632) (Atom_4 x_16620))))
(assert (forall ((x_15448 R_136) (x_16620 A_22) (x_15447 R_136))
	(plus_24 (Plus_23 Eps_8 (Atom_4 x_16620)) Eps_8 (Atom_4 x_16620))))
(assert (forall ((x_15448 R_136) (x_16620 A_22) (x_15447 R_136) (x_16633 R_136) (x_16634 R_136))
	(plus_24 (Plus_23 (Plus_23 x_16633 x_16634) (Atom_4 x_16620)) (Plus_23 x_16633 x_16634) (Atom_4 x_16620))))
(assert (forall ((x_15448 R_136) (x_16620 A_22) (x_15447 R_136) (x_16635 R_136) (x_16636 R_136))
	(plus_24 (Plus_23 (Seq_8 x_16635 x_16636) (Atom_4 x_16620)) (Seq_8 x_16635 x_16636) (Atom_4 x_16620))))
(assert (forall ((x_15448 R_136) (x_16620 A_22) (x_15447 R_136) (x_16637 R_136))
	(plus_24 (Plus_23 (Star_4 x_16637) (Atom_4 x_16620)) (Star_4 x_16637) (Atom_4 x_16620))))
(assert (forall ((x_15448 R_136) (x_15447 R_136) (x_16638 A_22))
	(plus_24 (Plus_23 (Atom_4 x_16638) Eps_8) (Atom_4 x_16638) Eps_8)))
(assert (forall ((x_15448 R_136) (x_15447 R_136))
	(plus_24 (Plus_23 Eps_8 Eps_8) Eps_8 Eps_8)))
(assert (forall ((x_15448 R_136) (x_15447 R_136) (x_16639 R_136) (x_16640 R_136))
	(plus_24 (Plus_23 (Plus_23 x_16639 x_16640) Eps_8) (Plus_23 x_16639 x_16640) Eps_8)))
(assert (forall ((x_15448 R_136) (x_15447 R_136) (x_16641 R_136) (x_16642 R_136))
	(plus_24 (Plus_23 (Seq_8 x_16641 x_16642) Eps_8) (Seq_8 x_16641 x_16642) Eps_8)))
(assert (forall ((x_15448 R_136) (x_15447 R_136) (x_16643 R_136))
	(plus_24 (Plus_23 (Star_4 x_16643) Eps_8) (Star_4 x_16643) Eps_8)))
(assert (forall ((x_15448 R_136) (x_16621 R_136) (x_16622 R_136) (x_15447 R_136) (x_16644 A_22))
	(plus_24 (Plus_23 (Atom_4 x_16644) (Plus_23 x_16621 x_16622)) (Atom_4 x_16644) (Plus_23 x_16621 x_16622))))
(assert (forall ((x_15448 R_136) (x_16621 R_136) (x_16622 R_136) (x_15447 R_136))
	(plus_24 (Plus_23 Eps_8 (Plus_23 x_16621 x_16622)) Eps_8 (Plus_23 x_16621 x_16622))))
(assert (forall ((x_15448 R_136) (x_16621 R_136) (x_16622 R_136) (x_15447 R_136) (x_16645 R_136) (x_16646 R_136))
	(plus_24 (Plus_23 (Plus_23 x_16645 x_16646) (Plus_23 x_16621 x_16622)) (Plus_23 x_16645 x_16646) (Plus_23 x_16621 x_16622))))
(assert (forall ((x_15448 R_136) (x_16621 R_136) (x_16622 R_136) (x_15447 R_136) (x_16647 R_136) (x_16648 R_136))
	(plus_24 (Plus_23 (Seq_8 x_16647 x_16648) (Plus_23 x_16621 x_16622)) (Seq_8 x_16647 x_16648) (Plus_23 x_16621 x_16622))))
(assert (forall ((x_15448 R_136) (x_16621 R_136) (x_16622 R_136) (x_15447 R_136) (x_16649 R_136))
	(plus_24 (Plus_23 (Star_4 x_16649) (Plus_23 x_16621 x_16622)) (Star_4 x_16649) (Plus_23 x_16621 x_16622))))
(assert (forall ((x_15448 R_136) (x_16623 R_136) (x_16624 R_136) (x_15447 R_136) (x_16650 A_22))
	(plus_24 (Plus_23 (Atom_4 x_16650) (Seq_8 x_16623 x_16624)) (Atom_4 x_16650) (Seq_8 x_16623 x_16624))))
(assert (forall ((x_15448 R_136) (x_16623 R_136) (x_16624 R_136) (x_15447 R_136))
	(plus_24 (Plus_23 Eps_8 (Seq_8 x_16623 x_16624)) Eps_8 (Seq_8 x_16623 x_16624))))
(assert (forall ((x_15448 R_136) (x_16623 R_136) (x_16624 R_136) (x_15447 R_136) (x_16651 R_136) (x_16652 R_136))
	(plus_24 (Plus_23 (Plus_23 x_16651 x_16652) (Seq_8 x_16623 x_16624)) (Plus_23 x_16651 x_16652) (Seq_8 x_16623 x_16624))))
(assert (forall ((x_15448 R_136) (x_16623 R_136) (x_16624 R_136) (x_15447 R_136) (x_16653 R_136) (x_16654 R_136))
	(plus_24 (Plus_23 (Seq_8 x_16653 x_16654) (Seq_8 x_16623 x_16624)) (Seq_8 x_16653 x_16654) (Seq_8 x_16623 x_16624))))
(assert (forall ((x_15448 R_136) (x_16623 R_136) (x_16624 R_136) (x_15447 R_136) (x_16655 R_136))
	(plus_24 (Plus_23 (Star_4 x_16655) (Seq_8 x_16623 x_16624)) (Star_4 x_16655) (Seq_8 x_16623 x_16624))))
(assert (forall ((x_15448 R_136) (x_16625 R_136) (x_15447 R_136) (x_16656 A_22))
	(plus_24 (Plus_23 (Atom_4 x_16656) (Star_4 x_16625)) (Atom_4 x_16656) (Star_4 x_16625))))
(assert (forall ((x_15448 R_136) (x_16625 R_136) (x_15447 R_136))
	(plus_24 (Plus_23 Eps_8 (Star_4 x_16625)) Eps_8 (Star_4 x_16625))))
(assert (forall ((x_15448 R_136) (x_16625 R_136) (x_15447 R_136) (x_16657 R_136) (x_16658 R_136))
	(plus_24 (Plus_23 (Plus_23 x_16657 x_16658) (Star_4 x_16625)) (Plus_23 x_16657 x_16658) (Star_4 x_16625))))
(assert (forall ((x_15448 R_136) (x_16625 R_136) (x_15447 R_136) (x_16659 R_136) (x_16660 R_136))
	(plus_24 (Plus_23 (Seq_8 x_16659 x_16660) (Star_4 x_16625)) (Seq_8 x_16659 x_16660) (Star_4 x_16625))))
(assert (forall ((x_15448 R_136) (x_16625 R_136) (x_15447 R_136) (x_16661 R_136))
	(plus_24 (Plus_23 (Star_4 x_16661) (Star_4 x_16625)) (Star_4 x_16661) (Star_4 x_16625))))
(declare-fun eqA_4 (Bool_119 A_22 A_22) Bool)
(assert (eqA_4 true_119 Y_621 Y_621))
(assert (eqA_4 false_119 Y_621 X_15440))
(assert (eqA_4 false_119 X_15440 Y_621))
(assert (eqA_4 true_119 X_15440 X_15440))
(declare-fun eps_9 (Bool_119 R_136) Bool)
(assert (forall ((y_625 R_136))
	(eps_9 true_119 (Star_4 y_625))))
(assert (forall ((x_17480 Bool_119) (x_17481 Bool_119) (x_17482 Bool_119) (r_137 R_136) (q_23 R_136))
	(=> (and (eps_9 x_17481 r_137) (eps_9 x_17482 q_23) (and_119 x_17480 x_17481 x_17482)) (eps_9 x_17480 (Seq_8 r_137 q_23)))))
(assert (forall ((x_17483 Bool_119) (x_17484 Bool_119) (x_17485 Bool_119) (p_68 R_136) (q_24 R_136))
	(=> (and (eps_9 x_17484 p_68) (eps_9 x_17485 q_24) (or_120 x_17483 x_17484 x_17485)) (eps_9 x_17483 (Plus_23 p_68 q_24)))))
(assert (eps_9 true_119 Eps_8))
(assert (forall ((x_15451 R_136) (x_16662 A_22))
	(eps_9 false_119 (Atom_4 x_16662))))
(assert (forall ((x_15451 R_136))
	(eps_9 false_119 Nil_94)))
(declare-fun epsR_4 (R_136 R_136) Bool)
(assert (forall ((x_15452 R_136))
	(=> (eps_9 true_119 x_15452) (epsR_4 Eps_8 x_15452))))
(assert (forall ((x_15452 R_136))
	(=> (eps_9 false_119 x_15452) (epsR_4 Nil_94 x_15452))))
(declare-fun step_4 (R_136 R_136 A_22) Bool)
(assert (forall ((x_17493 R_136) (x_17494 R_136) (p_69 R_136) (y_626 A_22))
	(=> (and (step_4 x_17494 p_69 y_626) (seq_9 x_17493 x_17494 (Star_4 p_69))) (step_4 x_17493 (Star_4 p_69) y_626))))
(assert (forall ((x_17496 R_136) (x_17497 R_136) (x_17498 R_136) (x_17499 R_136) (x_17500 R_136) (x_17501 R_136) (r_138 R_136) (q_25 R_136) (y_626 A_22))
	(=> (and (step_4 x_17497 r_138 y_626) (seq_9 x_17498 x_17497 q_25) (epsR_4 x_17499 r_138) (step_4 x_17500 q_25 y_626) (seq_9 x_17501 x_17499 x_17500) (plus_24 x_17496 x_17498 x_17501)) (step_4 x_17496 (Seq_8 r_138 q_25) y_626))))
(assert (forall ((x_17503 R_136) (x_17504 R_136) (x_17505 R_136) (p_70 R_136) (q_26 R_136) (y_626 A_22))
	(=> (and (step_4 x_17504 p_70 y_626) (step_4 x_17505 q_26 y_626) (plus_24 x_17503 x_17504 x_17505)) (step_4 x_17503 (Plus_23 p_70 q_26) y_626))))
(assert (forall ((a_23 A_22) (y_626 A_22))
	(=> (eqA_4 true_119 a_23 y_626) (step_4 Eps_8 (Atom_4 a_23) y_626))))
(assert (forall ((a_23 A_22) (y_626 A_22))
	(=> (eqA_4 false_119 a_23 y_626) (step_4 Nil_94 (Atom_4 a_23) y_626))))
(assert (forall ((x_15454 R_136) (y_626 A_22))
	(step_4 Nil_94 Eps_8 y_626)))
(assert (forall ((x_15454 R_136) (y_626 A_22))
	(step_4 Nil_94 Nil_94 y_626)))
(declare-fun recognise_4 (Bool_119 R_136 list_88) Bool)
(assert (forall ((x_17513 Bool_119) (x_17514 R_136) (z_658 A_22) (xs_197 list_88) (x_15455 R_136))
	(=> (and (step_4 x_17514 x_15455 z_658) (recognise_4 x_17513 x_17514 xs_197)) (recognise_4 x_17513 x_15455 (cons_88 z_658 xs_197)))))
(assert (forall ((x_17516 Bool_119) (x_15455 R_136))
	(=> (eps_9 x_17516 x_15455) (recognise_4 x_17516 x_15455 nil_95))))
(assert (forall ((x_17518 Bool_119) (x_17519 Bool_119) (p_71 R_136) (q_27 R_136) (r_139 R_136) (s_200 list_88))
	(=> (and true (diseqBool_52 x_17518 x_17519) (recognise_4 x_17518 (Plus_23 p_71 (Plus_23 q_27 r_139)) s_200) (recognise_4 x_17519 (Plus_23 (Plus_23 p_71 q_27) r_139) s_200)) false)))
(check-sat)
